28 12 76 50 30 20 71 65 66 32 90 63 10 70 51 9 35 34 78 3 77 68 80 54 4 26 
6 95 59 61 16 86 38 44 14 42 43 15 41 22 74 73 58 
53 40 21 72 75 23 67 39 56 25 55 24 29 79 81 33 1 
27 69 31 88 62 19 11 64 49 36 47 46 8 45 17 84 5 83 60 89 
2 57 87 97 92 37 98 100 91 85 93 99 96 94 13 
52 7 48 82 18 
